(set-logic QF_LIA)
(declare-fun x0 () Int)
(declare-fun x1 () Int)
(declare-fun x2 () Int)
(declare-fun x3 () Int)
(declare-fun x4 () Int)
(declare-fun x5 () Int)
(declare-fun x6 () Int)
(declare-fun x7 () Int)
(declare-fun x8 () Int)
(declare-fun x9 () Int)
(declare-fun A0 () Bool)
(declare-fun A1 () Bool)
(declare-fun A2 () Bool)
(declare-fun A3 () Bool)
(declare-fun A4 () Bool)
(declare-fun A5 () Bool)
(declare-fun A6 () Bool)
(declare-fun A7 () Bool)
(declare-fun A8 () Bool)
(declare-fun A9 () Bool)
(assert (let ((.def_0 (* (- 1) x4))) (let ((.def_1 (* (- 1) x9))) (let ((.def_2 (+ .def_1 .def_0))) (let ((.def_3 (< .def_2 (- 1)))) (let ((.def_4 (* (- 1) x1))) (let ((.def_5 (< .def_4 (- 1)))) (let ((.def_6 (and .def_5 .def_3))) (let ((.def_7 (not .def_5))) (let ((.def_8 (< .def_1 1))) (let ((.def_9 (or .def_8 .def_7))) (let ((.def_10 (and .def_9 .def_6))) (let ((.def_11 (not A0))) (let ((.def_12 (* 1 x6))) (let ((.def_13 (* (- 1) x2))) (let ((.def_14 (+ .def_13 .def_12))) (let ((.def_15 (< .def_14 (- 1)))) (let ((.def_16 (not .def_15))) (let ((.def_17 (or .def_16 .def_11))) (let ((.def_18 (* 1 x3))) (let ((.def_19 (+ .def_18 .def_13))) (let ((.def_20 (< .def_19 1))) (let ((.def_21 (not .def_20))) (let ((.def_22 (or .def_21 A2))) (let ((.def_23 (and .def_22 .def_17))) (let ((.def_24 (not .def_23))) (let ((.def_25 (or .def_24 .def_10))) (let ((.def_26 (or A0 A4))) (let ((.def_27 (not .def_26))) (let ((.def_28 (and A3 A5))) (let ((.def_29 (not .def_28))) (let ((.def_30 (and .def_29 .def_27))) (let ((.def_31 (not .def_30))) (let ((.def_32 (not A2))) (let ((.def_33 (= A6 .def_32))) (let ((.def_34 (not .def_33))) (let ((.def_35 (not A1))) (let ((.def_36 (and A4 .def_35))) (let ((.def_37 (not .def_36))) (let ((.def_38 (and .def_37 .def_34))) (let ((.def_39 (not .def_38))) (let ((.def_40 (or .def_39 .def_31))) (let ((.def_41 (not .def_40))) (let ((.def_42 (and .def_41 .def_25))) (let ((.def_43 (not A4))) (let ((.def_44 (and .def_32 .def_43))) (let ((.def_45 (not .def_44))) (let ((.def_46 (* (- 1) x3))) (let ((.def_47 (+ .def_46 .def_1))) (let ((.def_48 (< .def_47 1))) (let ((.def_49 (not .def_48))) (let ((.def_50 (and .def_49 A1))) (let ((.def_51 (not .def_50))) (let ((.def_52 (and .def_51 .def_45))) (let ((.def_53 (not .def_52))) (let ((.def_54 (* (- 1) x0))) (let ((.def_55 (+ .def_54 .def_46))) (let ((.def_56 (< .def_55 1))) (let ((.def_57 (not .def_56))) (let ((.def_58 (* 1 x8))) (let ((.def_59 (< .def_58 (- 1)))) (let ((.def_60 (or .def_59 .def_57))) (let ((.def_61 (not .def_60))) (let ((.def_62 (< .def_0 (- 1)))) (let ((.def_63 (not .def_62))) (let ((.def_64 (* (- 1) x7))) (let ((.def_65 (* (- 1) x8))) (let ((.def_66 (+ .def_65 .def_64))) (let ((.def_67 (< .def_66 (- 1)))) (let ((.def_68 (= .def_67 .def_63))) (let ((.def_69 (not .def_68))) (let ((.def_70 (and .def_69 .def_61))) (let ((.def_71 (or .def_70 .def_53))) (let ((.def_72 (not .def_71))) (let ((.def_73 (* 1 x4))) (let ((.def_74 (+ .def_73 .def_18))) (let ((.def_75 (< .def_74 1))) (let ((.def_76 (not A6))) (let ((.def_77 (or .def_76 .def_75))) (let ((.def_78 (< .def_18 (- 1)))) (let ((.def_79 (* 1 x0))) (let ((.def_80 (< .def_79 1))) (let ((.def_81 (not .def_80))) (let ((.def_82 (and .def_81 .def_78))) (let ((.def_83 (= .def_82 .def_77))) (let ((.def_84 (or A9 A2))) (let ((.def_85 (* 1 x2))) (let ((.def_86 (< .def_85 (- 1)))) (let ((.def_87 (* 1 x5))) (let ((.def_88 (+ .def_87 .def_65))) (let ((.def_89 (< .def_88 1))) (let ((.def_90 (and .def_89 .def_86))) (let ((.def_91 (or .def_90 .def_84))) (let ((.def_92 (not .def_91))) (let ((.def_93 (and .def_92 .def_83))) (let ((.def_94 (not .def_93))) (let ((.def_95 (= .def_94 .def_72))) (let ((.def_96 (not .def_95))) (let ((.def_97 (or .def_96 .def_42))) (let ((.def_98 (+ .def_73 .def_58))) (let ((.def_99 (< .def_98 (- 1)))) (let ((.def_100 (not .def_99))) (let ((.def_101 (not A8))) (let ((.def_102 (and .def_101 .def_100))) (let ((.def_103 (* 1 x7))) (let ((.def_104 (< .def_103 1))) (let ((.def_105 (not A9))) (let ((.def_106 (or .def_105 .def_104))) (let ((.def_107 (= .def_106 .def_102))) (let ((.def_108 (or .def_105 A5))) (let ((.def_109 (not .def_108))) (let ((.def_110 (not A7))) (let ((.def_111 (and .def_110 .def_105))) (let ((.def_112 (not .def_111))) (let ((.def_113 (or .def_112 .def_109))) (let ((.def_114 (or .def_113 .def_107))) (let ((.def_115 (not .def_86))) (let ((.def_116 (or .def_35 .def_115))) (let ((.def_117 (* (- 1) x6))) (let ((.def_118 (+ .def_117 .def_73))) (let ((.def_119 (< .def_118 1))) (let ((.def_120 (* 1 x9))) (let ((.def_121 (+ .def_120 .def_85))) (let ((.def_122 (< .def_121 (- 1)))) (let ((.def_123 (and .def_122 .def_119))) (let ((.def_124 (and .def_123 .def_116))) (let ((.def_125 (not .def_124))) (let ((.def_126 (+ .def_0 .def_4))) (let ((.def_127 (< .def_126 (- 1)))) (let ((.def_128 (or .def_127 .def_78))) (let ((.def_129 (not .def_128))) (let ((.def_130 (and .def_43 A2))) (let ((.def_131 (and .def_130 .def_129))) (let ((.def_132 (not .def_131))) (let ((.def_133 (or .def_132 .def_125))) (let ((.def_134 (and .def_133 .def_114))) (let ((.def_135 (and .def_11 .def_11))) (let ((.def_136 (not .def_135))) (let ((.def_137 (or A3 .def_105))) (let ((.def_138 (not .def_137))) (let ((.def_139 (and .def_138 .def_136))) (let ((.def_140 (+ .def_103 .def_0))) (let ((.def_141 (< .def_140 1))) (let ((.def_142 (not .def_141))) (let ((.def_143 (+ .def_120 .def_13))) (let ((.def_144 (< .def_143 (- 1)))) (let ((.def_145 (or .def_144 .def_142))) (let ((.def_146 (not .def_145))) (let ((.def_147 (* 1 x1))) (let ((.def_148 (+ .def_120 .def_147))) (let ((.def_149 (< .def_148 1))) (let ((.def_150 (and .def_35 .def_149))) (let ((.def_151 (not .def_150))) (let ((.def_152 (or .def_151 .def_146))) (let ((.def_153 (or .def_152 .def_139))) (let ((.def_154 (< .def_117 (- 1)))) (let ((.def_155 (not A5))) (let ((.def_156 (and .def_155 .def_154))) (let ((.def_157 (not .def_156))) (let ((.def_158 (and .def_11 .def_7))) (let ((.def_159 (not .def_158))) (let ((.def_160 (and .def_159 .def_157))) (let ((.def_161 (= .def_76 .def_110))) (let ((.def_162 (or A3 .def_32))) (let ((.def_163 (and .def_162 .def_161))) (let ((.def_164 (not .def_163))) (let ((.def_165 (and .def_164 .def_160))) (let ((.def_166 (and .def_165 .def_153))) (let ((.def_167 (not .def_166))) (let ((.def_168 (or .def_167 .def_134))) (let ((.def_169 (= .def_168 .def_97))) (let ((.def_170 (+ .def_58 .def_54))) (let ((.def_171 (< .def_170 (- 1)))) (let ((.def_172 (+ .def_0 .def_103))) (let ((.def_173 (< .def_172 (- 1)))) (let ((.def_174 (not .def_173))) (let ((.def_175 (or .def_174 .def_171))) (let ((.def_176 (not .def_175))) (let ((.def_177 (not .def_104))) (let ((.def_178 (and A8 .def_177))) (let ((.def_179 (and .def_178 .def_176))) (let ((.def_180 (not .def_179))) (let ((.def_181 (or A0 A8))) (let ((.def_182 (not .def_181))) (let ((.def_183 (and .def_81 .def_7))) (let ((.def_184 (or .def_183 .def_182))) (let ((.def_185 (not .def_184))) (let ((.def_186 (= .def_185 .def_180))) (let ((.def_187 (not .def_186))) (let ((.def_188 (and .def_32 A0))) (let ((.def_189 (not .def_188))) (let ((.def_190 (and .def_32 A8))) (let ((.def_191 (not .def_190))) (let ((.def_192 (and .def_191 .def_189))) (let ((.def_193 (not .def_192))) (let ((.def_194 (< .def_87 1))) (let ((.def_195 (and .def_101 .def_194))) (let ((.def_196 (not .def_195))) (let ((.def_197 (+ .def_54 .def_73))) (let ((.def_198 (< .def_197 1))) (let ((.def_199 (not .def_198))) (let ((.def_200 (or .def_199 .def_35))) (let ((.def_201 (not .def_200))) (let ((.def_202 (and .def_201 .def_196))) (let ((.def_203 (not .def_202))) (let ((.def_204 (and .def_203 .def_193))) (let ((.def_205 (not .def_204))) (let ((.def_206 (= .def_205 .def_187))) (let ((.def_207 (< .def_18 1))) (let ((.def_208 (+ .def_147 .def_87))) (let ((.def_209 (< .def_208 (- 1)))) (let ((.def_210 (not .def_209))) (let ((.def_211 (or .def_210 .def_207))) (let ((.def_212 (not .def_211))) (let ((.def_213 (or .def_76 A5))) (let ((.def_214 (or .def_213 .def_212))) (let ((.def_215 (+ .def_54 .def_13))) (let ((.def_216 (< .def_215 1))) (let ((.def_217 (not .def_216))) (let ((.def_218 (< .def_64 1))) (let ((.def_219 (not .def_218))) (let ((.def_220 (or .def_219 .def_217))) (let ((.def_221 (not .def_220))) (let ((.def_222 (+ .def_4 .def_64))) (let ((.def_223 (< .def_222 1))) (let ((.def_224 (and .def_223 .def_62))) (let ((.def_225 (not .def_224))) (let ((.def_226 (or .def_225 .def_221))) (let ((.def_227 (not .def_226))) (let ((.def_228 (and .def_227 .def_214))) (let ((.def_229 (and .def_11 A1))) (let ((.def_230 (* (- 1) x5))) (let ((.def_231 (+ .def_120 .def_230))) (let ((.def_232 (< .def_231 1))) (let ((.def_233 (and .def_232 .def_155))) (let ((.def_234 (and .def_233 .def_229))) (let ((.def_235 (not .def_234))) (let ((.def_236 (or .def_59 A0))) (let ((.def_237 (not .def_236))) (let ((.def_238 (+ .def_120 .def_87))) (let ((.def_239 (< .def_238 (- 1)))) (let ((.def_240 (not .def_239))) (let ((.def_241 (or A5 .def_240))) (let ((.def_242 (not .def_241))) (let ((.def_243 (or .def_242 .def_237))) (let ((.def_244 (not .def_243))) (let ((.def_245 (or .def_244 .def_235))) (let ((.def_246 (or .def_245 .def_228))) (let ((.def_247 (not .def_246))) (let ((.def_248 (or .def_247 .def_206))) (let ((.def_249 (+ .def_0 .def_64))) (let ((.def_250 (< .def_249 (- 1)))) (let ((.def_251 (not .def_250))) (let ((.def_252 (= .def_115 .def_251))) (let ((.def_253 (not .def_252))) (let ((.def_254 (+ .def_147 .def_85))) (let ((.def_255 (< .def_254 (- 1)))) (let ((.def_256 (not .def_255))) (let ((.def_257 (or .def_115 .def_256))) (let ((.def_258 (not .def_257))) (let ((.def_259 (and .def_258 .def_253))) (let ((.def_260 (not .def_259))) (let ((.def_261 (< .def_85 1))) (let ((.def_262 (not .def_261))) (let ((.def_263 (< .def_64 (- 1)))) (let ((.def_264 (not .def_263))) (let ((.def_265 (or .def_264 .def_262))) (let ((.def_266 (not .def_265))) (let ((.def_267 (< .def_58 1))) (let ((.def_268 (not .def_267))) (let ((.def_269 (and .def_76 .def_268))) (let ((.def_270 (not .def_269))) (let ((.def_271 (or .def_270 .def_266))) (let ((.def_272 (not .def_271))) (let ((.def_273 (or .def_272 .def_260))) (let ((.def_274 (+ .def_147 .def_12))) (let ((.def_275 (< .def_274 (- 1)))) (let ((.def_276 (and .def_155 .def_275))) (let ((.def_277 (not A3))) (let ((.def_278 (and .def_277 .def_219))) (let ((.def_279 (and .def_278 .def_276))) (let ((.def_280 (not .def_154))) (let ((.def_281 (+ .def_230 .def_13))) (let ((.def_282 (< .def_281 1))) (let ((.def_283 (not .def_282))) (let ((.def_284 (or .def_283 .def_280))) (let ((.def_285 (and .def_11 .def_35))) (let ((.def_286 (and .def_285 .def_284))) (let ((.def_287 (not .def_286))) (let ((.def_288 (or .def_287 .def_279))) (let ((.def_289 (and .def_288 .def_273))) (let ((.def_290 (not .def_289))) (let ((.def_291 (and .def_277 A3))) (let ((.def_292 (not .def_291))) (let ((.def_293 (< .def_73 1))) (let ((.def_294 (= .def_293 A4))) (let ((.def_295 (not .def_294))) (let ((.def_296 (or .def_295 .def_292))) (let ((.def_297 (not .def_296))) (let ((.def_298 (or .def_78 .def_76))) (let ((.def_299 (not .def_298))) (let ((.def_300 (or A9 .def_155))) (let ((.def_301 (or .def_300 .def_299))) (let ((.def_302 (not .def_301))) (let ((.def_303 (and .def_302 .def_297))) (let ((.def_304 (not .def_303))) (let ((.def_305 (< .def_13 (- 1)))) (let ((.def_306 (not .def_305))) (let ((.def_307 (and A9 .def_306))) (let ((.def_308 (< .def_120 1))) (let ((.def_309 (+ .def_1 .def_46))) (let ((.def_310 (< .def_309 1))) (let ((.def_311 (and .def_310 .def_308))) (let ((.def_312 (not .def_311))) (let ((.def_313 (or .def_312 .def_307))) (let ((.def_314 (or .def_110 .def_86))) (let ((.def_315 (not .def_314))) (let ((.def_316 (and A1 .def_155))) (let ((.def_317 (not .def_316))) (let ((.def_318 (or .def_317 .def_315))) (let ((.def_319 (or .def_318 .def_313))) (let ((.def_320 (or .def_319 .def_304))) (let ((.def_321 (and .def_320 .def_290))) (let ((.def_322 (or .def_321 .def_248))) (let ((.def_323 (not .def_322))) (let ((.def_324 (or .def_323 .def_169))) (let ((.def_325 (not .def_324))) (let ((.def_326 (<= x9 1))) (let ((.def_327 (<= 0 x9))) (let ((.def_328 (<= x8 1))) (let ((.def_329 (<= 0 x8))) (let ((.def_330 (<= x7 1))) (let ((.def_331 (<= 0 x7))) (let ((.def_332 (<= x6 1))) (let ((.def_333 (<= 0 x6))) (let ((.def_334 (<= x5 1))) (let ((.def_335 (<= 0 x5))) (let ((.def_336 (<= x4 1))) (let ((.def_337 (<= 0 x4))) (let ((.def_338 (<= x3 1))) (let ((.def_339 (<= 0 x3))) (let ((.def_340 (<= x2 1))) (let ((.def_341 (<= 0 x2))) (let ((.def_342 (<= x1 1))) (let ((.def_343 (<= 0 x1))) (let ((.def_344 (<= x0 1))) (let ((.def_345 (<= 0 x0))) (let ((.def_346 (and .def_345 .def_344 .def_343 .def_342 .def_341 .def_340 .def_339 .def_338 .def_337 .def_336 .def_335 .def_334 .def_333 .def_332 .def_331 .def_330 .def_329 .def_328 .def_327 .def_326 .def_325))) .def_346))))))))))))))))))))))))))))))))))))))))))))))))))))))))))))))))))))))))))))))))))))))))))))))))))))))))))))))))))))))))))))))))))))))))))))))))))))))))))))))))))))))))))))))))))))))))))))))))))))))))))))))))))))))))))))))))))))))))))))))))))))))))))))))))))))))))))))))))))))))))))))))))))))))))))))))))))))))))))))))))))))))))))))))))))))))))))))
(check-sat)
